Total weight: 1790.4944601468246
Route 1: 0 5 45 2 6 8 46 3 1 4 100 70 0 
Route 2: 0 12 11 75 97 58 0 
Route 3: 0 14 47 15 16 17 60 0 
Route 4: 0 65 83 23 21 18 22 49 48 25 0 
Route 5: 0 64 51 85 84 20 24 0 
Route 6: 0 92 31 29 27 26 34 0 
Route 7: 0 33 30 28 32 50 71 93 0 
Route 8: 0 72 39 36 40 38 35 37 0 
Route 9: 0 42 44 43 41 61 0 
Route 10: 0 53 79 7 0 
Route 11: 0 82 52 86 57 66 0 
Route 12: 0 95 62 67 94 56 91 0 
Route 13: 0 81 54 96 0 
Route 14: 0 88 73 78 74 77 0 
Route 15: 0 19 76 63 89 0 
Route 16: 0 99 59 87 9 10 13 0 
Route 17: 0 90 80 0 
Route 18: 0 69 98 55 68 0 
